10 35
3 20
9 24
2 35
5 11
3 40
3 27
14 43
8 41
7 6
10 16
11 8
8 4
5 6
16 47
15 8
9 15
18 24
18 40
11 8
11 15
3 8
17 31
18 48
15 48
13 10
8 16
13 38
3 6
8 15
16 25
7 24
8 3
4 19
17 39
13 31
10 1
9 31
4 40
13 8
2 23
9 22
5 27
11 12
16 4
7 2
13 31
6 46
7 26
9 25
1 38
2 2
4 25
16 43
10 12
8 1
19 19
15 33
8 25
11 31
19 9
17 38
9 18
7 6
8 14
3 42
1 19
3 18
13 32
18 40
16 1
14 28
16 43
7 31
17 16
14 27
9 22
3 21
3 23
2 34
6 49
16 44
13 5
5 43
14 5
6 27
2 7
8 3
15 40
3 36
1 3
17 14
1 29
7 2
9 33
19 15
10 28
5 2
19 16
1 8
500 -1
